% seed = 0

mint = 37;
% maxt = 229;

nActs = 92;
dur = [0,2,3,1,2,5,1,2,4,1,4,2,2,1,4,1,1,2,2,1,3,3,1,4,3,1,5,2,3,6,2,4,4,2,3,2,4,3,2,3,3,3,5,6,3,2,1,4,1,2,2,3,1,4,1,3,3,1,2,3,2,2,1,2,4,3,6,4,2,3,1,3,1,2,5,1,1,1,2,3,2,2,1,3,1,3,2,2,3,5,2,0];

nSkills = 9;
sreq = [| 0,0,0,0,0,0,0,0,0,
	| 0,0,0,0,0,1,0,1,0,
	| 0,0,0,0,0,0,0,2,0,
	| 0,0,0,1,0,1,0,2,0,
	| 0,0,1,0,1,0,0,0,0,
	| 0,1,1,0,0,0,1,1,0,
	| 0,0,1,0,0,1,0,2,0,
	| 0,0,1,0,0,0,0,0,1,
	| 0,0,1,1,0,0,0,2,0,
	| 0,0,0,0,0,0,0,1,0,
	| 0,0,0,0,0,0,1,1,0,
	| 0,1,0,0,0,0,1,1,1,
	| 0,0,1,0,0,0,0,2,0,
	| 0,0,0,1,0,0,0,1,0,
	| 0,0,1,0,1,1,0,1,0,
	| 0,1,0,1,0,0,0,1,1,
	| 0,0,0,0,0,1,0,0,0,
	| 0,0,0,0,0,0,1,0,0,
	| 0,0,0,0,0,0,0,1,0,
	| 0,0,0,0,1,0,0,3,0,
	| 0,1,0,1,0,0,0,1,0,
	| 0,0,0,0,0,0,1,1,1,
	| 0,0,1,0,0,2,0,0,1,
	| 0,1,0,0,1,0,0,1,0,
	| 0,0,1,0,1,0,0,0,0,
	| 0,0,2,0,1,0,0,0,0,
	| 0,0,0,0,0,0,1,2,0,
	| 0,0,1,0,0,1,2,0,0,
	| 0,0,1,0,0,0,1,1,0,
	| 0,1,0,0,0,0,1,1,0,
	| 0,0,0,0,0,0,1,1,0,
	| 0,0,0,0,0,1,0,0,0,
	| 0,0,0,0,0,0,0,1,1,
	| 0,1,1,0,0,0,0,0,0,
	| 0,0,1,0,0,0,0,0,0,
	| 0,0,0,0,1,0,0,1,0,
	| 0,0,0,0,1,0,0,1,1,
	| 1,0,0,0,0,0,1,0,0,
	| 0,0,1,0,0,0,0,1,0,
	| 0,0,1,0,0,2,0,0,0,
	| 0,0,1,0,0,0,1,0,1,
	| 0,0,0,0,1,1,0,2,0,
	| 0,0,1,0,0,0,0,0,0,
	| 0,0,0,0,0,0,0,1,0,
	| 0,0,1,0,0,0,0,0,0,
	| 0,0,1,0,0,0,1,2,0,
	| 0,0,0,0,0,1,1,1,0,
	| 0,0,1,0,0,1,1,0,0,
	| 0,0,0,0,0,0,0,3,1,
	| 0,0,0,0,1,0,0,1,0,
	| 0,1,0,0,0,0,1,1,0,
	| 0,0,0,0,0,0,1,1,0,
	| 0,0,1,0,2,0,0,0,0,
	| 0,0,0,0,0,1,1,0,0,
	| 1,0,1,0,1,0,0,0,0,
	| 0,0,0,0,1,1,0,0,1,
	| 0,0,0,0,0,0,1,0,0,
	| 0,0,0,0,0,0,0,1,0,
	| 0,0,0,0,0,1,0,3,0,
	| 0,0,0,0,0,0,1,0,0,
	| 0,0,2,0,0,1,0,0,1,
	| 0,0,0,0,0,0,0,1,0,
	| 0,0,0,0,1,0,1,0,0,
	| 1,0,0,0,0,1,0,0,0,
	| 0,0,0,0,1,0,1,1,1,
	| 0,1,1,0,1,0,1,0,0,
	| 0,0,0,0,1,1,1,1,0,
	| 0,0,1,0,0,1,0,2,0,
	| 0,0,0,0,0,1,0,1,0,
	| 0,0,0,0,0,0,1,1,0,
	| 0,0,0,0,0,0,0,1,1,
	| 0,0,0,1,1,0,1,0,1,
	| 0,0,0,0,0,0,1,0,0,
	| 0,0,0,0,0,1,0,1,0,
	| 0,0,0,0,0,0,1,2,0,
	| 0,0,1,0,0,0,0,0,0,
	| 0,0,0,0,0,1,0,0,0,
	| 0,0,0,0,1,0,0,1,0,
	| 0,0,0,0,0,0,2,1,1,
	| 0,0,0,0,0,2,0,1,0,
	| 0,0,0,0,0,1,0,0,0,
	| 0,0,1,0,1,1,0,0,0,
	| 0,0,0,0,0,0,1,2,0,
	| 1,0,0,0,0,0,0,0,0,
	| 0,0,0,0,0,0,0,0,1,
	| 0,0,0,0,0,1,1,0,1,
	| 0,0,0,0,0,0,0,1,0,
	| 0,0,0,0,0,0,1,1,0,
	| 0,0,0,0,0,1,1,0,1,
	| 0,0,0,0,0,3,0,0,1,
	| 0,0,1,0,0,0,0,0,0,
	| 0,0,0,0,0,0,0,0,0, |];

% SumOfsreq = 226;

nResources = 12;
mastery = [| false,false,true,true,true,true,false,false,false,
	| false,false,false,false,true,true,false,false,false,
	| false,false,false,false,false,true,true,true,true,
	| false,false,false,true,true,true,true,true,true,
	| false,false,false,false,false,false,true,true,true,
	| false,false,false,false,false,false,false,true,true,
	| true,true,true,false,false,false,true,true,true,
	| false,false,false,false,false,false,false,true,true,
	| false,true,true,false,false,true,false,false,false,
	| false,false,true,false,true,true,false,false,false,
	| false,false,false,false,false,false,false,false,true,
	| false,false,false,false,false,false,true,true,true, |];

nPrecs = 138;
pred = [1,1,1,2,2,2,3,3,3,4,4,4,5,5,6,6,6,7,8,8,8,9,9,10,11,11,11,12,12,12,13,13,14,14,14,15,15,16,16,17,17,17,18,19,19,19,20,21,22,23,23,23,24,24,24,25,26,27,27,27,28,29,30,31,31,32,32,33,33,34,35,36,36,36,37,37,37,38,38,38,39,40,41,41,42,43,44,45,46,47,48,49,50,51,52,53,54,55,56,57,58,59,60,61,62,63,63,64,65,66,67,68,68,69,70,71,72,73,74,75,76,76,76,77,78,79,80,81,82,83,84,85,86,87,88,89,90,91];
succ = [2,3,4,9,11,7,42,6,23,5,14,8,10,32,53,21,16,12,29,13,15,33,49,50,17,20,22,19,62,31,25,64,81,18,63,26,44,78,40,59,72,24,54,89,28,85,76,34,35,41,27,38,36,30,47,37,87,74,54,86,82,83,55,57,77,52,46,68,56,67,90,50,43,52,48,39,40,58,85,74,73,45,73,51,65,71,90,60,61,88,66,84,54,75,70,58,65,79,79,66,65,79,90,75,74,66,80,77,75,67,87,73,69,70,89,82,76,83,78,76,83,77,78,89,84,82,86,85,91,84,87,86,88,91,91,92,92,92];

nUnrels = 3219;
unpred = [2,2,2,2,2,2,2,2,2,2,2,2,2,2,2,2,2,2,2,2,2,2,2,2,2,2,2,2,2,2,2,2,2,2,2,2,2,2,3,3,3,3,3,3,3,3,3,3,3,3,3,3,3,3,3,3,3,3,3,3,3,3,3,3,3,3,3,3,3,3,3,3,3,3,3,3,3,3,3,3,3,3,3,3,3,3,3,3,3,3,3,3,3,4,4,4,4,4,4,4,4,4,4,4,4,4,4,4,4,4,4,4,4,4,4,4,4,4,4,4,4,4,4,4,4,4,4,4,4,4,4,4,4,4,4,5,5,5,5,5,5,5,5,5,5,5,5,5,5,5,5,5,5,5,5,5,5,5,5,5,5,5,5,5,5,5,5,5,5,5,5,5,5,5,5,5,5,5,5,5,5,5,5,5,5,5,5,5,5,5,5,5,5,5,5,5,5,5,5,5,5,5,5,6,6,6,6,6,6,6,6,6,6,6,6,6,6,6,6,6,6,6,6,6,6,6,6,6,6,6,6,6,6,6,6,6,6,6,6,6,6,6,6,6,6,6,6,6,6,6,6,6,6,6,6,6,6,6,6,6,6,6,6,6,6,6,6,6,7,7,7,7,7,7,7,7,7,7,7,7,7,7,7,7,7,7,7,7,7,7,7,7,7,7,7,7,7,7,7,7,7,7,7,7,7,7,7,7,7,7,7,7,7,7,7,7,7,7,7,7,7,7,7,7,7,7,7,7,7,7,7,7,7,8,8,8,8,8,8,8,8,8,8,8,8,8,8,8,8,8,8,8,8,8,8,8,8,8,8,8,8,8,8,8,8,8,8,8,8,8,8,8,8,8,8,8,8,8,8,8,8,8,8,8,8,8,8,8,8,8,8,8,8,9,9,9,9,9,9,9,9,9,9,9,9,9,9,9,9,9,9,9,9,9,9,9,9,9,9,9,9,9,9,9,9,9,9,9,9,9,9,9,9,9,9,9,9,9,9,9,9,9,9,9,9,9,9,9,9,9,9,9,9,9,9,9,9,9,9,9,9,10,10,10,10,10,10,10,10,10,10,10,10,10,10,10,10,10,10,10,10,10,10,10,10,10,10,10,10,10,10,10,10,10,10,10,10,10,10,10,10,10,10,10,10,10,10,10,10,10,10,10,10,10,10,10,10,10,10,10,10,10,10,10,10,10,10,10,10,10,11,11,11,11,11,11,11,11,11,11,11,11,11,11,11,11,11,11,11,11,11,11,11,11,11,11,11,11,11,11,11,11,11,11,11,11,11,11,11,11,11,11,11,11,11,11,11,11,11,12,12,12,12,12,12,12,12,12,12,12,12,12,12,12,12,12,12,12,12,12,12,12,12,12,12,12,12,12,12,12,12,12,12,12,12,12,12,12,12,12,12,12,12,12,12,12,12,12,12,12,12,12,12,12,12,12,12,12,12,12,13,13,13,13,13,13,13,13,13,13,13,13,13,13,13,13,13,13,13,13,13,13,13,13,13,13,13,13,13,13,13,13,13,13,13,13,13,13,13,13,13,13,13,13,13,13,13,13,13,13,13,13,13,13,13,13,13,13,13,13,14,14,14,14,14,14,14,14,14,14,14,14,14,14,14,14,14,14,14,14,14,14,14,14,14,14,14,14,14,14,14,14,14,14,14,14,14,14,14,14,14,14,14,14,14,14,14,14,14,14,14,14,14,14,14,14,14,15,15,15,15,15,15,15,15,15,15,15,15,15,15,15,15,15,15,15,15,15,15,15,15,15,15,15,15,15,15,15,15,15,15,15,15,15,15,15,15,15,15,15,15,15,15,15,15,15,15,15,15,15,15,15,15,15,15,15,15,15,15,15,15,15,15,15,15,15,15,15,16,16,16,16,16,16,16,16,16,16,16,16,16,16,16,16,16,16,16,16,16,16,16,16,16,16,16,16,16,16,16,16,16,16,16,16,16,16,16,16,16,16,16,16,16,16,16,16,16,16,16,16,16,16,16,16,16,16,16,16,16,16,16,16,16,16,16,17,17,17,17,17,17,17,17,17,17,17,17,17,17,17,17,17,17,17,17,17,17,17,17,17,17,17,17,17,17,17,17,17,17,17,17,17,17,17,17,17,17,17,17,17,17,17,17,18,18,18,18,18,18,18,18,18,18,18,18,18,18,18,18,18,18,18,18,18,18,18,18,18,18,18,18,18,18,18,18,18,18,18,18,18,18,18,18,18,18,18,18,18,18,18,18,18,18,18,18,18,18,18,18,18,18,18,18,18,18,19,19,19,19,19,19,19,19,19,19,19,19,19,19,19,19,19,19,19,19,19,19,19,19,19,19,19,19,19,19,19,19,19,19,19,19,19,19,19,19,19,19,19,19,19,19,19,19,19,19,19,19,19,19,19,19,19,19,19,19,19,19,19,19,19,20,20,20,20,20,20,20,20,20,20,20,20,20,20,20,20,20,20,20,20,20,20,20,20,20,20,20,20,20,20,20,20,20,20,20,20,20,20,20,20,20,20,20,20,20,20,20,20,20,20,20,20,20,20,20,20,20,20,20,20,20,20,20,21,21,21,21,21,21,21,21,21,21,21,21,21,21,21,21,21,21,21,21,21,21,21,21,21,21,21,21,21,21,21,21,21,21,21,21,21,21,21,21,21,21,21,21,21,21,21,21,21,21,21,21,21,21,21,21,21,21,21,21,21,21,21,21,21,21,22,22,22,22,22,22,22,22,22,22,22,22,22,22,22,22,22,22,22,22,22,22,22,22,22,22,22,22,22,22,22,22,22,22,22,22,22,22,22,22,22,22,22,22,22,22,22,22,22,22,22,22,22,22,22,22,22,22,22,22,22,22,22,22,22,22,22,23,23,23,23,23,23,23,23,23,23,23,23,23,23,23,23,23,23,23,23,23,23,23,23,23,23,23,23,23,23,23,23,23,23,23,23,23,23,23,23,23,23,23,23,23,23,23,24,24,24,24,24,24,24,24,24,24,24,24,24,24,24,24,24,24,24,24,24,24,24,24,24,24,24,24,24,24,24,24,24,24,24,24,24,24,24,24,24,24,24,24,25,25,25,25,25,25,25,25,25,25,25,25,25,25,25,25,25,25,25,25,25,25,25,25,25,25,25,25,25,25,25,25,25,25,25,25,25,25,25,25,25,25,25,25,25,25,25,25,25,25,25,25,26,26,26,26,26,26,26,26,26,26,26,26,26,26,26,26,26,26,26,26,26,26,26,26,26,26,26,26,26,26,26,26,26,26,26,26,26,26,26,26,26,26,26,26,26,26,26,26,26,26,26,26,26,26,26,26,26,26,26,26,26,26,26,27,27,27,27,27,27,27,27,27,27,27,27,27,27,27,27,27,27,27,27,27,27,27,27,27,27,27,27,27,27,27,27,27,27,27,27,27,27,27,27,27,27,27,27,27,27,27,27,27,27,28,28,28,28,28,28,28,28,28,28,28,28,28,28,28,28,28,28,28,28,28,28,28,28,28,28,28,28,28,28,28,28,28,28,28,28,28,28,28,28,28,28,28,28,28,28,28,28,28,28,28,28,28,28,28,28,28,28,28,28,28,29,29,29,29,29,29,29,29,29,29,29,29,29,29,29,29,29,29,29,29,29,29,29,29,29,29,29,29,29,29,29,29,29,29,29,29,29,29,29,29,29,29,29,29,29,29,29,29,29,29,29,29,29,29,29,29,29,29,30,30,30,30,30,30,30,30,30,30,30,30,30,30,30,30,30,30,30,30,30,30,30,30,30,30,30,30,30,30,30,30,30,30,30,30,30,30,30,30,30,30,30,30,30,30,30,30,30,30,30,30,30,30,30,30,30,31,31,31,31,31,31,31,31,31,31,31,31,31,31,31,31,31,31,31,31,31,31,31,31,31,31,31,31,31,31,31,31,31,31,31,31,31,31,31,31,31,31,31,31,31,31,31,31,31,31,31,31,31,32,32,32,32,32,32,32,32,32,32,32,32,32,32,32,32,32,32,32,32,32,32,32,32,32,32,32,32,32,32,32,32,32,32,32,32,32,32,32,32,32,32,32,32,32,32,33,33,33,33,33,33,33,33,33,33,33,33,33,33,33,33,33,33,33,33,33,33,33,33,33,33,33,33,33,33,33,33,33,33,33,33,33,33,33,33,33,33,33,33,33,33,34,34,34,34,34,34,34,34,34,34,34,34,34,34,34,34,34,34,34,34,34,34,34,34,34,34,34,34,34,34,34,34,34,34,34,34,34,34,34,34,34,34,34,34,34,34,34,34,34,34,34,34,34,34,35,35,35,35,35,35,35,35,35,35,35,35,35,35,35,35,35,35,35,35,35,35,35,35,35,35,35,35,35,35,35,35,35,35,35,35,35,35,35,35,35,35,35,35,35,35,35,35,35,35,35,35,35,35,35,36,36,36,36,36,36,36,36,36,36,36,36,36,36,36,36,36,36,36,36,36,36,36,36,36,36,36,36,36,36,36,36,36,36,36,36,36,36,37,37,37,37,37,37,37,37,37,37,37,37,37,37,37,37,37,37,37,37,37,37,37,37,37,37,37,37,37,37,37,37,37,37,37,37,37,37,37,37,37,38,38,38,38,38,38,38,38,38,38,38,38,38,38,38,38,38,38,38,38,38,38,38,38,38,38,38,38,38,38,38,38,38,38,38,38,38,38,39,39,39,39,39,39,39,39,39,39,39,39,39,39,39,39,39,39,39,39,39,39,39,39,39,39,39,39,39,39,39,39,39,39,39,39,39,39,39,39,39,39,39,39,39,39,39,40,40,40,40,40,40,40,40,40,40,40,40,40,40,40,40,40,40,40,40,40,40,40,40,40,40,40,40,40,40,40,40,40,40,40,40,40,40,40,40,40,40,40,40,40,40,40,40,41,41,41,41,41,41,41,41,41,41,41,41,41,41,41,41,41,41,41,41,41,41,41,41,41,41,41,41,41,41,41,41,41,41,41,41,41,41,41,42,42,42,42,42,42,42,42,42,42,42,42,42,42,42,42,42,42,42,42,42,42,42,42,42,42,42,42,42,42,42,42,42,42,42,42,42,42,42,43,43,43,43,43,43,43,43,43,43,43,43,43,43,43,43,43,43,43,43,43,43,43,43,43,43,43,43,43,43,43,43,43,43,43,43,43,43,43,43,43,43,43,43,43,44,44,44,44,44,44,44,44,44,44,44,44,44,44,44,44,44,44,44,44,44,44,44,44,44,44,44,44,44,44,44,44,44,44,44,44,44,44,44,44,44,44,44,44,44,44,45,45,45,45,45,45,45,45,45,45,45,45,45,45,45,45,45,45,45,45,45,45,45,45,45,45,45,45,45,45,45,45,45,45,45,45,45,45,45,45,45,45,45,45,46,46,46,46,46,46,46,46,46,46,46,46,46,46,46,46,46,46,46,46,46,46,46,46,46,46,46,46,46,46,46,46,46,46,46,47,47,47,47,47,47,47,47,47,47,47,47,47,47,47,47,47,47,47,47,47,47,47,47,47,47,47,47,47,47,47,47,47,47,47,47,47,47,47,47,47,47,48,48,48,48,48,48,48,48,48,48,48,48,48,48,48,48,48,48,48,48,48,48,48,48,48,48,48,48,48,48,48,48,48,48,48,48,48,48,48,49,49,49,49,49,49,49,49,49,49,49,49,49,49,49,49,49,49,49,49,49,49,49,49,49,49,49,49,49,49,49,49,49,49,49,49,49,49,49,50,50,50,50,50,50,50,50,50,50,50,50,50,50,50,50,50,50,50,50,50,50,50,50,50,50,50,50,50,50,51,51,51,51,51,51,51,51,51,51,51,51,51,51,51,51,51,51,51,51,51,51,51,51,51,51,51,51,51,51,51,52,52,52,52,52,52,52,52,52,52,52,52,52,52,52,52,52,52,52,52,52,52,52,52,52,52,52,52,52,52,52,52,52,52,52,52,52,53,53,53,53,53,53,53,53,53,53,53,53,53,53,53,53,53,53,53,53,53,53,53,53,53,53,53,54,54,54,54,54,54,54,54,54,54,54,54,54,54,54,54,54,54,54,54,54,54,54,54,54,54,54,55,55,55,55,55,55,55,55,55,55,55,55,55,55,55,55,55,55,55,55,55,55,55,55,55,55,55,55,55,55,55,55,55,56,56,56,56,56,56,56,56,56,56,56,56,56,56,56,56,56,56,56,56,56,56,56,56,56,56,56,56,56,56,56,56,57,57,57,57,57,57,57,57,57,57,57,57,57,57,57,57,57,57,57,57,57,57,57,57,57,57,57,57,57,57,58,58,58,58,58,58,58,58,58,58,58,58,58,58,58,58,58,58,58,58,58,58,58,59,59,59,59,59,59,59,59,59,59,59,59,59,59,59,59,59,59,59,59,59,59,59,59,59,59,59,59,59,60,60,60,60,60,60,60,60,60,60,60,60,60,60,60,60,60,60,60,60,60,60,60,60,60,60,60,60,60,60,61,61,61,61,61,61,61,61,61,61,61,61,61,61,61,61,61,61,61,61,61,62,62,62,62,62,62,62,62,62,62,62,62,62,62,62,62,62,62,62,62,62,62,62,62,63,63,63,63,63,63,63,63,63,63,63,63,63,63,63,63,63,63,63,63,63,64,64,64,64,64,64,64,64,64,64,64,64,64,64,64,64,64,64,64,64,64,64,64,64,64,65,65,65,65,65,65,65,65,65,65,65,65,65,65,65,65,65,66,66,66,66,66,66,66,66,66,66,66,66,66,66,66,66,66,66,66,66,66,66,67,67,67,67,67,67,67,67,67,67,67,67,67,67,67,67,67,67,67,67,67,67,68,68,68,68,68,68,68,68,68,68,68,68,68,68,68,69,69,69,69,69,69,69,69,69,69,69,69,69,69,69,69,69,69,69,69,70,70,70,70,70,70,70,70,70,70,70,70,70,70,70,70,70,70,70,70,71,71,71,71,71,71,71,71,71,71,71,71,71,71,71,71,71,71,72,72,72,72,72,72,72,72,72,72,72,73,73,73,73,73,73,73,73,73,73,73,73,73,73,74,74,74,74,74,74,74,74,74,74,74,74,74,75,75,75,75,75,75,75,75,76,76,76,76,76,76,76,76,77,77,77,77,77,77,77,77,77,77,77,77,77,78,78,78,78,78,78,78,78,78,78,79,79,79,79,79,79,79,79,79,79,80,80,80,80,80,80,80,80,81,81,81,81,81,81,82,82,82,82,82,82,82,82,83,83,83,83,83,84,84,84,84,84,85,85,85,86,86,86,87,87,87,88,88,89,89,90];
unsucc = [3,4,5,6,8,10,13,14,15,16,18,21,23,25,26,27,29,32,34,37,38,39,40,41,42,44,45,46,48,51,53,58,60,61,63,64,80,81,4,5,7,8,9,10,11,12,13,14,15,17,18,19,20,22,24,25,26,28,29,30,31,32,33,35,36,37,39,43,44,46,47,48,49,50,52,55,56,57,59,61,62,63,64,66,68,69,70,71,72,79,80,81,82,6,7,9,11,12,16,17,19,20,21,22,23,24,27,28,30,31,33,34,35,36,38,41,42,43,47,49,51,53,55,56,57,58,59,62,68,69,71,72,74,79,82,6,7,8,9,11,12,13,14,15,16,17,18,19,20,21,22,23,24,25,26,27,28,29,30,31,33,34,35,36,37,38,39,40,41,42,43,44,45,47,48,49,51,53,55,56,57,58,59,60,62,63,64,66,67,68,69,71,72,73,74,79,80,81,82,85,86,88,90,7,8,9,10,11,12,13,14,15,17,18,19,20,22,23,24,25,26,27,28,29,30,31,32,33,35,36,37,38,39,41,42,43,44,46,47,48,49,50,51,52,54,55,56,57,59,61,62,63,64,66,68,69,70,71,72,73,74,79,80,81,82,85,86,88,8,9,10,11,13,14,15,16,17,18,20,21,22,23,24,25,26,27,29,30,32,33,34,35,36,37,38,39,40,41,42,43,44,45,46,47,48,49,50,51,52,53,54,55,56,58,59,60,61,63,64,65,68,69,70,71,72,73,75,76,79,80,81,83,90,9,10,11,12,14,16,17,18,19,20,21,22,23,24,27,28,30,31,32,33,34,35,36,38,41,42,43,46,47,49,50,51,52,53,54,55,56,57,58,59,61,62,63,65,68,69,70,71,72,74,75,76,78,79,80,81,82,85,86,88,10,11,12,13,14,15,16,17,18,19,20,21,22,23,24,25,26,27,28,29,30,31,32,34,35,36,37,38,39,40,41,42,43,44,45,46,47,48,50,51,52,53,54,55,57,58,59,60,61,62,63,64,65,66,67,71,72,74,75,76,77,78,80,81,85,86,88,90,11,12,13,14,15,16,17,18,19,20,21,22,23,24,25,26,27,28,29,30,31,32,33,34,35,36,37,38,39,40,41,42,43,44,45,46,47,48,49,51,52,53,55,56,57,58,59,60,61,62,63,64,66,67,68,69,70,71,72,73,74,79,80,81,82,85,86,88,90,12,13,14,15,16,18,19,21,23,25,26,27,28,29,31,32,33,34,37,38,39,40,41,42,44,45,46,48,49,51,53,56,57,58,60,61,62,63,64,66,67,68,69,73,74,80,81,85,86,13,14,15,16,17,18,20,21,22,23,24,25,26,27,29,30,32,33,34,35,36,37,38,39,40,41,42,43,44,45,46,47,48,49,50,51,52,53,54,55,56,58,59,60,61,63,64,65,68,69,70,71,72,73,75,76,79,80,81,83,90,14,15,16,17,18,19,20,21,22,23,24,26,27,28,29,30,31,32,33,34,35,36,38,41,42,43,44,46,47,49,50,51,52,53,54,55,56,57,58,59,61,62,63,65,68,69,70,71,72,74,75,76,78,79,80,81,82,85,86,88,15,16,17,19,20,21,22,23,24,25,26,27,28,29,30,31,32,33,34,35,36,37,38,39,40,41,42,43,44,45,46,47,48,49,50,51,52,53,55,56,57,58,59,60,61,62,64,68,69,70,71,72,73,74,79,82,90,16,17,18,19,20,21,22,23,24,25,27,28,29,30,31,32,33,34,35,36,37,38,39,40,41,42,43,45,46,47,48,49,50,51,52,53,54,55,56,57,58,59,60,61,62,63,64,65,66,67,68,69,70,71,72,73,74,75,76,77,78,79,80,81,82,83,84,85,86,88,89,17,18,19,20,21,22,23,24,25,26,27,28,29,30,31,32,33,34,35,36,37,38,39,41,42,43,44,46,47,48,49,50,51,52,53,54,55,56,57,58,59,61,62,63,64,65,66,67,68,69,70,71,72,73,74,75,76,77,79,80,81,82,83,85,86,88,89,18,19,20,21,22,23,25,26,27,28,29,31,32,33,34,35,37,38,39,40,41,42,44,45,46,48,49,51,53,56,57,58,60,61,62,63,64,66,67,68,69,73,74,80,81,85,86,90,19,20,21,22,23,24,25,26,27,28,29,30,31,32,33,34,35,36,37,38,39,40,41,42,43,44,45,46,47,48,49,50,51,52,53,55,56,57,58,59,60,61,62,63,64,66,67,68,69,70,71,72,73,74,79,80,81,82,85,86,88,90,20,21,22,23,24,25,26,27,29,30,31,32,33,34,35,36,37,38,39,40,41,42,43,44,45,46,47,48,49,50,51,52,53,54,55,56,57,58,59,60,61,62,63,64,65,66,67,68,69,70,71,72,73,74,75,76,77,78,79,80,81,83,84,87,90,21,22,23,24,25,26,27,28,29,30,31,32,33,34,35,36,37,38,39,40,41,42,43,44,45,46,47,48,49,50,51,52,53,54,55,56,57,58,59,60,61,62,63,64,65,66,67,68,69,70,71,72,73,74,75,79,80,81,82,85,86,88,90,22,23,24,25,26,27,28,29,30,31,32,33,35,36,37,38,39,40,41,42,43,44,45,46,47,48,49,50,51,52,53,54,55,56,57,58,59,60,61,62,63,64,65,66,68,69,70,71,72,73,74,75,76,77,78,79,80,81,82,83,84,85,86,88,89,90,23,24,25,26,27,28,29,30,31,32,33,34,36,37,38,39,40,41,42,43,44,45,46,47,48,49,50,51,52,53,54,55,56,57,58,59,60,61,62,63,64,65,66,67,68,69,70,71,72,73,74,75,76,77,78,79,80,81,82,83,84,85,86,87,88,89,91,24,25,26,28,29,30,31,32,33,34,35,36,37,39,40,42,43,44,45,46,47,48,49,50,52,53,55,56,57,59,60,61,62,63,64,66,67,68,69,70,71,72,79,80,81,82,90,25,26,27,28,29,31,32,33,34,35,37,38,39,40,41,42,44,45,46,48,49,51,53,56,57,58,59,60,61,62,63,64,66,67,68,69,72,73,74,80,81,85,86,90,26,27,28,29,30,31,32,33,34,35,36,38,41,42,43,44,46,47,49,50,51,52,53,54,55,56,57,58,59,61,62,63,64,65,68,69,70,71,72,74,75,76,77,78,79,80,81,82,85,86,88,89,27,28,29,30,31,32,33,34,35,36,37,38,39,40,41,42,43,44,45,46,47,48,49,50,51,52,53,54,55,56,57,58,59,60,61,62,63,64,65,66,67,68,69,70,71,72,73,74,75,76,77,78,79,80,81,82,83,84,85,86,88,89,90,28,29,30,31,32,33,34,35,36,37,38,39,40,41,42,43,44,45,46,47,48,49,50,51,52,53,55,56,57,58,59,60,61,62,63,64,66,67,68,69,70,71,72,73,79,80,81,82,85,90,29,30,31,32,33,34,35,36,37,38,39,40,41,42,43,44,45,46,47,48,49,50,51,52,53,54,55,56,57,58,59,60,61,62,63,64,65,66,67,68,69,70,71,72,73,74,75,76,77,78,79,80,81,83,84,85,86,87,88,89,90,30,31,32,33,34,35,36,37,38,39,40,41,42,43,44,45,46,47,48,49,50,51,52,53,54,55,56,57,58,59,60,61,62,63,64,65,66,67,68,69,70,71,72,73,74,75,76,77,78,79,80,81,82,85,86,88,89,90,31,32,33,34,35,36,37,38,39,40,41,42,43,44,45,46,47,48,49,50,51,52,53,54,56,57,58,59,60,61,62,63,64,65,66,67,68,69,70,71,72,73,74,75,76,77,78,80,81,83,84,85,86,87,88,89,90,32,33,34,35,36,37,38,39,40,41,42,43,44,45,46,47,48,49,50,51,52,53,54,55,56,58,59,60,61,62,63,64,65,68,69,70,71,72,73,74,75,76,78,79,80,81,82,83,84,85,86,88,90,33,34,35,36,37,38,39,40,41,42,43,44,45,47,48,49,50,51,53,54,55,56,57,58,59,60,62,63,64,65,66,67,68,69,71,72,73,74,79,80,81,82,85,86,88,90,34,35,36,37,38,39,40,41,42,43,44,45,46,47,48,49,50,51,52,53,54,55,57,58,59,60,61,62,63,64,65,66,67,71,72,74,75,76,77,78,80,81,85,86,88,90,35,36,37,38,39,40,41,42,43,44,45,46,47,48,49,50,51,52,53,54,55,56,57,58,59,60,61,62,63,64,65,66,68,69,70,71,72,73,74,75,76,77,78,79,80,81,82,83,84,85,86,88,89,90,36,37,38,39,40,41,42,43,44,45,46,47,48,49,50,51,52,53,54,55,56,57,58,59,60,61,62,63,64,65,66,67,68,69,70,71,72,73,74,75,76,77,78,79,80,81,82,83,84,85,86,87,88,89,91,37,38,39,40,41,42,44,45,46,47,48,49,51,53,55,56,57,58,59,60,61,62,63,64,66,67,68,69,72,73,74,79,80,81,85,86,88,90,38,41,42,43,44,46,47,49,50,51,52,53,54,55,56,57,58,59,61,62,63,64,65,68,69,70,71,72,74,75,76,77,78,79,80,81,82,85,86,88,89,39,40,41,42,43,44,45,46,47,48,49,50,51,52,53,54,55,56,57,59,60,61,62,63,64,66,67,68,69,70,71,72,73,79,80,81,82,90,40,41,42,43,44,45,46,47,48,49,50,51,52,53,54,55,56,57,58,59,60,61,62,63,64,65,66,67,68,69,70,71,72,74,75,76,77,78,79,80,81,82,85,86,88,89,90,41,42,43,44,46,47,48,49,50,51,52,53,54,55,56,57,58,59,61,62,63,64,65,66,67,68,69,70,71,72,73,74,75,76,77,78,79,80,81,82,83,84,85,86,87,88,89,91,42,43,44,45,46,47,48,49,50,52,53,54,55,56,57,58,59,60,61,62,63,64,65,66,67,68,69,70,71,72,74,79,80,81,82,85,86,88,90,43,44,45,46,47,48,49,50,51,52,53,54,55,56,57,58,59,60,61,62,63,64,66,67,68,69,70,71,72,73,74,79,80,81,82,85,86,88,90,44,45,46,47,48,49,50,51,52,53,54,55,56,57,58,59,60,61,62,63,64,65,66,67,68,69,70,72,73,74,75,76,77,78,79,80,81,83,84,85,86,87,88,89,90,45,46,47,48,49,50,51,52,53,54,55,56,57,58,59,60,61,62,63,64,65,66,67,68,69,70,71,72,73,74,75,76,77,78,79,80,81,82,83,84,85,86,87,88,89,91,46,47,48,49,50,51,52,53,54,55,56,57,58,59,61,62,63,64,65,66,67,68,69,70,71,72,73,74,75,76,77,78,79,80,81,82,83,84,85,86,87,88,89,91,47,48,49,50,51,52,53,54,55,56,57,58,59,60,62,63,64,65,66,67,68,69,70,71,72,73,74,79,80,81,82,85,86,88,90,48,49,50,51,52,53,54,55,56,57,58,59,60,61,62,63,64,65,66,67,68,69,70,71,72,73,74,75,76,77,78,79,80,81,82,83,84,85,86,87,89,90,49,50,51,52,53,54,55,56,57,58,59,60,61,62,63,64,65,68,69,70,71,72,73,74,75,76,77,78,79,80,81,82,83,84,85,86,88,89,90,50,51,52,53,54,55,56,57,58,59,60,61,62,63,64,65,66,67,68,69,70,71,72,73,74,75,76,77,78,79,80,81,82,83,85,86,88,89,90,51,52,53,55,56,57,58,59,60,61,62,63,64,66,67,68,69,70,71,72,73,74,79,80,81,82,85,86,88,90,52,53,54,55,56,57,58,59,60,61,62,63,64,65,66,67,68,69,70,71,72,73,74,79,80,81,82,85,86,88,90,53,54,55,56,57,58,59,60,61,62,63,64,65,66,67,68,69,71,72,73,74,75,76,77,78,79,80,81,82,83,84,85,86,87,88,90,91,54,55,56,57,59,60,61,62,63,64,66,67,68,69,70,71,72,73,74,79,80,81,82,85,86,88,90,55,56,57,58,59,60,61,62,63,64,66,67,68,69,70,71,72,73,74,79,80,81,82,85,86,88,90,56,57,58,59,60,61,62,63,64,65,66,67,68,69,70,71,72,73,74,75,76,77,78,80,81,83,84,85,86,87,88,89,90,57,58,59,60,61,62,63,64,65,66,67,68,69,70,71,72,73,74,75,76,77,78,80,81,83,84,85,86,87,88,89,90,58,59,60,61,62,63,64,65,68,69,70,71,72,73,74,75,76,77,78,79,80,81,82,83,84,85,86,88,89,90,59,60,61,62,63,64,66,67,68,69,70,71,72,73,74,79,80,81,82,85,86,88,90,60,61,62,63,64,65,66,67,68,69,70,71,72,73,74,75,76,77,78,80,81,83,84,85,86,87,88,89,90,61,62,63,64,65,66,67,68,69,70,71,72,73,74,75,76,77,78,79,80,81,82,83,84,85,86,87,88,89,91,62,63,64,65,66,67,68,69,70,71,72,73,74,79,80,81,82,85,86,88,90,63,64,65,66,67,68,69,70,71,72,73,75,76,77,79,80,81,82,83,85,86,88,89,90,64,65,68,69,70,71,72,73,74,75,76,77,78,79,81,82,83,84,85,89,90,65,66,67,68,69,70,71,72,73,74,75,76,78,79,80,81,82,83,84,85,86,87,88,90,91,66,67,68,69,70,71,72,73,74,79,80,81,82,85,86,88,90,68,69,70,71,72,73,74,75,76,77,78,79,80,81,82,83,84,85,86,88,89,90,68,69,70,71,72,73,74,75,76,77,78,79,80,81,82,83,84,85,86,88,89,90,71,72,74,75,76,77,78,79,80,81,82,85,86,88,90,71,72,73,74,75,76,77,78,79,80,81,82,83,84,85,86,87,88,90,91,71,72,73,74,75,76,77,78,79,80,81,82,83,84,85,86,87,88,90,91,72,73,74,75,76,77,78,79,80,81,83,84,85,86,87,88,89,90,73,74,75,79,80,81,82,85,86,88,90,74,75,76,77,78,79,80,81,82,85,86,88,89,90,75,76,77,79,80,81,82,83,85,86,88,89,90,79,80,81,82,85,86,88,90,79,80,81,82,85,86,88,90,78,79,80,81,82,83,84,85,86,87,88,90,91,79,80,81,82,83,85,86,88,89,90,80,81,83,84,85,86,87,88,89,90,81,82,83,84,85,87,89,90,82,83,84,87,89,90,83,84,85,86,87,88,89,90,85,86,88,89,90,85,86,88,89,90,87,89,90,87,89,90,88,89,90,89,90,90,91,91];

USEFUL_RES = [{},
	{1,2,3,4,5,6,7,8,9,10,12},
	{3,4,5,6,7,8,12},
	{1,2,3,4,5,6,7,8,9,10,12},
	{1,2,4,7,9,10},
	{1,3,4,5,6,7,8,9,10,12},
	{1,2,3,4,5,6,7,8,9,10,12},
	{1,3,4,5,6,7,8,9,10,11,12},
	{1,3,4,5,6,7,8,9,10,12},
	{3,4,5,6,7,8,12},
	{3,4,5,6,7,8,12},
	{3,4,5,6,7,8,9,11,12},
	{1,3,4,5,6,7,8,9,10,12},
	{1,3,4,5,6,7,8,12},
	{1,2,3,4,5,6,7,8,9,10,12},
	{1,3,4,5,6,7,8,9,11,12},
	{1,2,3,4,9,10},
	{3,4,5,7,12},
	{3,4,5,6,7,8,12},
	{1,2,3,4,5,6,7,8,10,12},
	{1,3,4,5,6,7,8,9,12},
	{3,4,5,6,7,8,11,12},
	{1,2,3,4,5,6,7,8,9,10,11,12},
	{1,2,3,4,5,6,7,8,9,10,12},
	{1,2,4,7,9,10},
	{1,2,4,7,9,10},
	{3,4,5,6,7,8,12},
	{1,2,3,4,5,7,9,10,12},
	{1,3,4,5,6,7,8,9,10,12},
	{3,4,5,6,7,8,9,12},
	{3,4,5,6,7,8,12},
	{1,2,3,4,9,10},
	{3,4,5,6,7,8,11,12},
	{1,7,9,10},
	{1,7,9,10},
	{1,2,3,4,5,6,7,8,10,12},
	{1,2,3,4,5,6,7,8,10,11,12},
	{3,4,5,7,12},
	{1,3,4,5,6,7,8,9,10,12},
	{1,2,3,4,7,9,10},
	{1,3,4,5,6,7,8,9,10,11,12},
	{1,2,3,4,5,6,7,8,9,10,12},
	{1,7,9,10},
	{3,4,5,6,7,8,12},
	{1,7,9,10},
	{1,3,4,5,6,7,8,9,10,12},
	{1,2,3,4,5,6,7,8,9,10,12},
	{1,2,3,4,5,7,9,10,12},
	{3,4,5,6,7,8,11,12},
	{1,2,3,4,5,6,7,8,10,12},
	{3,4,5,6,7,8,9,12},
	{3,4,5,6,7,8,12},
	{1,2,4,7,9,10},
	{1,2,3,4,5,7,9,10,12},
	{1,2,4,7,9,10},
	{1,2,3,4,5,6,7,8,9,10,11,12},
	{3,4,5,7,12},
	{3,4,5,6,7,8,12},
	{1,2,3,4,5,6,7,8,9,10,12},
	{3,4,5,7,12},
	{1,2,3,4,5,6,7,8,9,10,11,12},
	{3,4,5,6,7,8,12},
	{1,2,3,4,5,7,10,12},
	{1,2,3,4,7,9,10},
	{1,2,3,4,5,6,7,8,10,11,12},
	{1,2,3,4,5,7,9,10,12},
	{1,2,3,4,5,6,7,8,9,10,12},
	{1,2,3,4,5,6,7,8,9,10,12},
	{1,2,3,4,5,6,7,8,9,10,12},
	{3,4,5,6,7,8,12},
	{3,4,5,6,7,8,11,12},
	{1,2,3,4,5,6,7,8,10,11,12},
	{3,4,5,7,12},
	{1,2,3,4,5,6,7,8,9,10,12},
	{3,4,5,6,7,8,12},
	{1,7,9,10},
	{1,2,3,4,9,10},
	{1,2,3,4,5,6,7,8,10,12},
	{3,4,5,6,7,8,11,12},
	{1,2,3,4,5,6,7,8,9,10,12},
	{1,2,3,4,9,10},
	{1,2,3,4,7,9,10},
	{3,4,5,6,7,8,12},
	{7},
	{3,4,5,6,7,8,11,12},
	{1,2,3,4,5,6,7,8,9,10,11,12},
	{3,4,5,6,7,8,12},
	{3,4,5,6,7,8,12},
	{1,2,3,4,5,6,7,8,9,10,11,12},
	{1,2,3,4,5,6,7,8,9,10,11,12},
	{1,7,9,10},
	{}];

POTENTIAL_ACT = [{2,4,5,6,7,8,9,13,14,15,16,17,20,21,23,24,25,26,28,29,32,34,35,36,37,39,40,41,42,43,45,46,47,48,50,53,54,55,56,59,61,63,64,65,66,67,68,69,72,74,76,77,78,80,81,82,86,89,90,91},
	{2,4,5,7,15,17,20,23,24,25,26,28,32,36,37,40,42,47,48,50,53,54,55,56,59,61,63,64,65,66,67,68,69,72,74,77,78,80,81,82,86,89,90},
	{2,3,4,6,7,8,9,10,11,12,13,14,15,16,17,18,19,20,21,22,23,24,27,28,29,30,31,32,33,36,37,38,39,40,41,42,44,46,47,48,49,50,51,52,54,56,57,58,59,60,61,62,63,64,65,66,67,68,69,70,71,72,73,74,75,77,78,79,80,81,82,83,85,86,87,88,89,90},
	{2,3,4,5,6,7,8,9,10,11,12,13,14,15,16,17,18,19,20,21,22,23,24,25,26,27,28,29,30,31,32,33,36,37,38,39,40,41,42,44,46,47,48,49,50,51,52,53,54,55,56,57,58,59,60,61,62,63,64,65,66,67,68,69,70,71,72,73,74,75,77,78,79,80,81,82,83,85,86,87,88,89,90},
	{2,3,4,6,7,8,9,10,11,12,13,14,15,16,18,19,20,21,22,23,24,27,28,29,30,31,33,36,37,38,39,41,42,44,46,47,48,49,50,51,52,54,56,57,58,59,60,61,62,63,65,66,67,68,69,70,71,72,73,74,75,78,79,80,83,85,86,87,88,89,90},
	{2,3,4,6,7,8,9,10,11,12,13,14,15,16,19,20,21,22,23,24,27,29,30,31,33,36,37,39,41,42,44,46,47,49,50,51,52,56,58,59,61,62,65,67,68,69,70,71,72,74,75,78,79,80,83,85,86,87,88,89,90},
	{2,3,4,5,6,7,8,9,10,11,12,13,14,15,16,18,19,20,21,22,23,24,25,26,27,28,29,30,31,33,34,35,36,37,38,39,40,41,42,43,44,45,46,47,48,49,50,51,52,53,54,55,56,57,58,59,60,61,62,63,64,65,66,67,68,69,70,71,72,73,74,75,76,78,79,80,82,83,84,85,86,87,88,89,90,91},
	{2,3,4,6,7,8,9,10,11,12,13,14,15,16,19,20,21,22,23,24,27,29,30,31,33,36,37,39,41,42,44,46,47,49,50,51,52,56,58,59,61,62,65,67,68,69,70,71,72,74,75,78,79,80,83,85,86,87,88,89,90},
	{2,4,5,6,7,8,9,12,13,15,16,17,21,23,24,25,26,28,29,30,32,34,35,39,40,41,42,43,45,46,47,48,51,53,54,55,56,59,61,64,66,67,68,69,74,76,77,80,81,82,86,89,90,91},
	{2,4,5,6,7,8,9,13,15,17,20,23,24,25,26,28,29,32,34,35,36,37,39,40,41,42,43,45,46,47,48,50,53,54,55,56,59,61,63,64,65,66,67,68,69,72,74,76,77,78,80,81,82,86,89,90,91},
	{8,12,16,22,23,33,37,41,49,56,61,65,71,72,79,85,86,89,90},
	{2,3,4,6,7,8,9,10,11,12,13,14,15,16,18,19,20,21,22,23,24,27,28,29,30,31,33,36,37,38,39,41,42,44,46,47,48,49,50,51,52,54,56,57,58,59,60,61,62,63,65,66,67,68,69,70,71,72,73,74,75,78,79,80,83,85,86,87,88,89,90}];
